db/data/16552514357352272391285981532715684.z3.out
-------------------
2500.171905440
